Assets/LKHProbs~/bomb.11.tsp
NAME : GeneratedProblem
COMMENT : SVGCrosshatch
TYPE : TSP
DIMENSION : 8
EDGE_WEIGHT_TYPE : EUC_2D
NODE_COORD_SECTION
1 6000 11000
2 6100 11000
3 6200 11000
4 6500 11500
5 6800 11000
6 8000 6900
7 8400 6900
8 8800 7000
EOF
